max_width = 15;
n_blocks = 25;
width = [5, 5, 5, 4, 4, 4, 4, 4, 4, 3, 3, 3, 3, 3, 3, 2, 2, 2, 2, 2, 2, 2, 2, 2, 2];
height = [13, 3, 3, 13, 12, 11, 6, 5, 1, 13, 11, 11, 9, 7, 2, 13, 12, 11, 11, 9, 7, 6, 5, 2, 1];
